
 102   30
  10   10   10   10   10   10   10   10   10   10   10   10   10   10   10   10   10   10   10   10   10   10   10   10   10   10   10   10   10   10

   0   0   0   0   0   0   0   0   0   0   0   0   0   0   0   0   0   0   0   0   0   0   0   0   0   0   0   0   0   0   0  29 2 3 4 5 6 7 8 9 10 11 12 13 14 15 16 17 19 20 21 22 23 24 25 27 28 31 34 36 45 
   4   1   0   0   4   0   0   0   0   0   0   0   0   0   0   0   0   0   0   2   1   0   1   0   0   0   0   0   0   0   0  10 76 71 65 51 50 43 38 37 35 18 
   7   0   0   1   0   1   0   0   0   1   0   0   0   0   2   1   0   0   0   0   0   0   0   0   0   0   0   0   0   0   0  21 101 99 77 76 71 69 64 63 62 61 60 59 58 56 54 50 49 48 46 42 35 
   8   0   0   0   0   0   0   0   0   0   0   0   0   0   0   0   0   0   0   0   0   0   0   0   0   0   0   0   0   0   1  20 101 99 77 76 74 73 70 65 64 63 61 60 58 53 51 48 44 43 42 33 
   7   0   0   0   0   0   1   0   0   0   0   0   0   0   0   0   0   0   0   0   0   0   0   0   0   0   0   0   0   0   0  11 101 99 76 73 60 58 57 40 33 32 29 
   6   0   1   0   0   0   0   0   0   0   0   0   0   0   0   0   0   0   0   0   1   0   0   0   0   0   0   0   0   0   0  15 100 99 77 76 71 70 65 64 60 55 53 49 42 38 30 
   8   0   0   0   0  10   0   0   0   5   0   0   0   0   0   0   0   0   1   0   0   0   0   0   3   0   0   1   0   0   2  19 101 99 77 76 74 71 69 68 65 64 58 57 56 53 51 49 44 42 39 
   8   0   0   0   0   0   0   0   0   0   0   0   0   0   0   0   0   0   0   0   0   0   5   0   0   0   0   0   0   0   0  18 99 98 97 95 76 72 71 69 63 62 61 60 57 56 54 51 50 35 
   2   0   0   0   0   0   9   0   0   0   0   0   0   0   0   0   0   0   0   0   0   0   0   0   0   0   0   7   0   0   0  11 99 76 73 61 60 52 51 43 41 40 33 
   7   0   0   0   0   0   3   0   0   0   0   0   0   0   0   0   3   0   0   3   0   0   0   0   0   0   2   0   0   0   0  19 101 100 99 95 77 76 74 68 62 61 60 59 57 56 53 51 44 43 42 
   4   4   0   0   0   0   0   0   0   0   0   0   0   0   5   0   0   0   0   0   0   0   0   0   0   0   0   0   0   0   6  19 100 98 97 92 86 76 74 73 72 71 68 67 65 63 60 59 55 43 41 
   6   0   6   8   0   0   5   0   0   0   0   0   0   0   5   0   0   1   0   7   0   0   0   0   0   2   3   0   2   0   0  11 101 77 76 74 63 62 61 56 46 42 26 
   3   6   0   5   0   0   0   1   0   0   1   0   0   0   0   0   0   6   0   0   0   0   0   0   0   0   0   0   0   0   0  18 99 98 95 74 73 70 69 68 65 64 61 60 59 57 56 51 50 46 
   1   0   0   0   0   0   0   0   2   0   0   0   0   0   0   0   0   0   0   0   0   0   0   3   6   0   0   0   0   0   0  14 99 98 95 94 92 75 72 69 65 60 58 56 51 30 
  10   0   0   0   0   0   0   5   0   0   0   0   1   0   0   0   0   0   0   0   0   0   9   0   0   5   0   0   0   0   0  20 100 99 98 97 94 93 90 84 76 74 73 71 69 68 67 60 58 57 56 47 
   1   0   0   0   0   0   0   0   0   0   5   0   0   0   0  10   0   0   0   0   0   0   0   0   0   0   0   5   0   0   0  16 100 99 98 96 95 93 76 75 73 71 68 67 64 60 56 40 
   4   7   0   0   0   0   0   0   0   0   0   0   0   0   0   0   0   0   0   0   0   0   0   0   0   0   0   0   0   0   8  17 101 100 98 97 95 91 89 83 77 73 70 68 62 61 59 57 46 
   4   0   0   0   0   0   0   6   0   0   0   0   0   0   0   0   5   0   0   0   0   0   0   0   0   0   0   0   0   0   0  11 101 99 94 93 83 77 64 63 61 60 33 
   8   0   0   0   5   0   0   0   0   0   0   0   0   0   0   0   0   0   0   0   0   0   0   0   0   0   8   0   0   0   0  11 99 96 95 91 89 77 71 62 51 46 35 
   9   0   0   0   8   0   0   0   0   0   0   0   0   0   0   0   0   0   0   0   0   0   0   0   0   0   5   0   0   0   0  21 99 98 97 96 94 92 91 89 86 82 76 74 73 72 70 69 68 65 61 59 54 
   6   0   0   0   3   0   0   0   0   0   0   0   0   0   0   0   0   8   0   0   0   0   0   0   5   0   9   0   0   1   0  16 101 99 97 92 90 87 75 73 72 69 68 66 60 57 51 50 
   9   0   0   0   6   0   0   0   0   0   0   0   0   0   0   0   4   0   0   0   0   0   0   3   0   0   0   0   0   0   0  14 100 99 95 92 77 76 74 67 66 62 60 59 58 43 
   5   6   0   0   0   8   3   6   0   0   0   0   0   0   0   0   0   5   0   0   0   0   0   0   0   0   0   0   0   0   0  21 98 97 96 95 94 93 92 90 88 86 85 84 77 76 75 74 72 67 66 63 60 
   9   0   0   0   0   0   0   0   0   0   0   1   0   0   1   0   0   0   0   0   0   0   0   0   0   0   0   0   3   0   0  16 101 100 98 96 94 92 90 85 70 69 68 63 62 60 56 53 
   2   0   0   0   0   0   8   0   7   0   0   0   0   0   0   4   0   0   0   0   0   0   0   0   0   0   0   0   0   0   0  11 99 98 97 89 83 73 66 64 57 55 46 
   8   0   0   0   0   0   0   7   0  10   6   0   0   1   0   0   0   0   0   8   0   1   0   0   0   0   0   0   0   4   0  14 100 99 97 95 94 92 91 89 73 72 69 64 59 53 
   4   0   0   0   0   0   0   0   0   6   0   0   0   0   0   0   0   0   0   9   0   0   0   5   0   0   0   0   0   0   9  16 101 99 98 97 95 94 93 92 87 84 74 68 67 62 59 58 
   2   0   0   0   0   0   0   6   0   0   0   0   8   8   0   0   0   0   0   0   0   0   7   0   0   0   0   0   0   0   6  15 101 95 94 92 91 86 82 77 73 72 70 68 67 57 56 
   6   0   0   0   0   0   0   0   0   0   0   0   0   0   0   0   0   0   0   0   0   0   7   0   0   0   0   0   0   0   0  12 96 92 91 88 70 69 68 63 61 56 53 51 
   9   0   0   0   6   0   0   4   0   0   7   0   0   0   0   0   5   0   0   4   0   0   0   0   0   3   0   0   0   0   7  13 97 93 91 90 87 84 74 68 67 66 63 62 57 
   1   0   0   0   0   0   0   8   0   0   5   0   7   0   0   0   0   0   0   0   0   0   0   0   0   0   0   3   0   7   0  11 99 97 96 89 84 80 77 73 69 62 49 
  10   0   2   0   0   0   0   0   0   0   0   0   0   0   6   0   0   0   0   8   0   0   0   0   0   0   0   0   8   6   9  11 93 92 91 90 88 82 71 70 65 64 56 
   6   6   0   0   0   0   0   0   0   0   0   0   0   0   6   0   0   0   0   0   5   0   0   0   0   0   4   0   6   0   0  12 100 98 95 92 91 89 84 79 72 68 62 59 
   6   8   0   0   0   0   0   0   0   0   0   0   0   0   0   0   0   0   0   0   0   0   0   0   0   0   0   0   0   8   0   9 95 93 92 82 73 72 67 66 48 
   6   0   0   0   0   0   0   0   0   0   0   0  10   0   0   0   5   0   0   0   0   0   0   0   0   0   0   0   0   0   7  14 100 94 92 87 86 85 82 75 74 73 70 68 67 66 
   8   0   0   5   0   0   0   0   5   0   0   0   0   0   0   0   0   0   0   0   0   0   0   4   5   0   0   0   0   9   0  17 101 98 96 95 91 90 89 88 87 86 85 84 83 82 81 80 67 
  10   8   0   5   0   0   0   0   0   0   0   0   0   0   8   0   0   0   6   5   0   0   0   0   6   0   0   0   0   0   0  14 93 91 90 89 88 85 84 80 77 74 73 72 69 67 
   6   0   0   4   0   5   0   8   0   0   0   0   0   0   0   0   0   0   0   0   0   0   0   0   0   0   0   0   0   0   0  11 97 96 92 88 86 85 83 81 73 67 61 
   4   0   0   0   0   0   0   0   0   7   0   0   0   0   0   6   0   0   0   0   5   0   0   0   0   0   7   0   0   0   0  11 100 97 88 86 85 84 83 82 81 73 61 
   5   7   0   0   0   0   0   0   0   0   0   0   0   0   0   0   6   6   0   0   0   0   7   0   0   0   1   0   0   0   0   8 94 92 90 79 74 70 66 62 
   3   6   0   0   0   0   0   0   0   0   0   0   0   0   0   0   0   0   0   0   0  10   0   6   0   0   0   0   0   0   0   4 91 85 56 53 
   3   6   0   0   0   0   0   0   0   0   0   0   0   0   6   0   0   6   0   0   8   0   0   0   0   6   8   0   0   0   0  11 98 97 93 92 91 90 89 88 87 82 66 
   3   0   7   0   0   0   0   0   0   0   0   0   0   9   0   0   0   0   0   0   0   0   4   0   0   0   0   0   0   0   0  11 96 94 91 89 88 85 84 82 81 79 69 
   3   0   0   0   0   0   0   0   0   0   0   0   0   0   8   0   0   0   0   6   0   0   0   0   0   0   0   0   5   0   0  11 97 94 93 92 90 88 87 86 81 80 67 
   9   0   0   0   0   0   0   0   4   0   0   0   0   0   0   0   0   0   4   0   0   0   0   0   0   0   0   0   0   0   0  10 101 99 92 91 89 86 84 82 79 68 
   3   0   0   0   0   0   5   0   0   0   0   0   0   0  10   6   0   0   0   0   0   0   0   0   0   0  10   0  10   0   0   9 93 92 87 86 85 84 82 72 67 
   3   0   0   0   0   0   7   0   0   0   0   0   0   0   3   0   9   0   0   9   0   0   0   0   0   0   8   0   5   0   0   7 96 95 87 79 78 72 62 
   5   0   0   6   0   0   0   0   0   0   0   0   0   0   0   0  10   0   0   5   0   0   0   0   8   0   0   0   0   0   0  10 97 91 90 89 88 85 84 83 81 78 
  10   0   0   0   3   0   0   0   0   0   0   0   0   0   0   0   0   0   0   0   4   0   0   0   0   0   0   0   0   0   0   9 95 92 91 90 87 83 79 78 72 
   9   0   0   0   0   0   0   0   0   0   0   0   0   9   9   0   0   0   0   0   0   0   0   0   8   0   0   0   0   0   0   8 94 91 89 88 84 82 80 79 
   4   0   0   0   0   0   0   0   0   0   0   0   0   0   0   0   0   0   3   0   0   0   0   0   0   0   0   0   0   0   0   6 93 86 85 84 83 67 
   5   0   0   8   0   0   0   0   0   4   0   0   0   0   0   0   0   0   0   0   0   0   0   0   0   0   0   0   7   3   0   6 93 90 82 80 79 72 
   9   0   0   0   4   0   6   0   0   0   0   0   0   0   0   0   0   0   0   0   0   0   0   0   5   0   0   0   8   0   0   5 93 87 84 82 66 
   5   0   0   0   6   0   8   0   0   0   0   0   0   0   0   0   0   0   0   5   0   0   0   5   0   5   0   0   0   0   0   5 87 83 81 79 66 
   3   7   0   0   0   0   0  10   0   4   0   0   0   0   0   0   6   5   0   0   0   0   0   0   0   0   9   0   2   0   0   6 101 95 94 87 79 78 
   6   0   0   0   0   0   0   0   6   0   0   0   0   0   0   0   0   0   0   0   0   0   0   6   0   4   7   0   5   0   0   4 89 83 79 66 
   1   7   0   0   0   5   0   0   0   0   0   0   0   0   0  10   4   0   0   0   0   0   0   0   0   0   0   0   0   0   0   5 96 88 85 80 78 
   9   0   0   0   0   0   0   0   0   0   0   0   0   0   0   8   0   0   0   9   0   4   0   0   0   0   0   0   9   0   0   5 86 82 81 80 78 
   1   0   0   0   8   0   0   0   0   0   0   7   0   0   0   0   0   0   0   0   0   0   7   0   0   9   0   0   0   0   0   4 90 85 78 75 
   8   0   0   6   0   0   0   0   0   0   0   0   8   0   0   4   0   0   0   0   0   0   0   6   0   0   0   0   0   0   0   4 91 89 82 79 
   1   6   0   8   5   0   0   0   0   0   0   9   5   0   0   0   0   0   0   0   0   0   0   0   0  10   0   0   0   0   0   2 90 66 
   1   0   0   0   0   4   8   0   0   0   0   0   0   0   0   0   0   0   0   0   0   0   0   9   7   0   0   0   0   0   0   3 88 86 82 
  10   0   0   0   0   0   0   0   0   6   0   0   0   0   0   0   0   0   0   0   0   0   7   0   0   0   0   0   0   0   0   3 89 81 78 
  10   0   3   0   0   0   0   0   0   0   0   0   6   0   0   0   0   0   0   8   5   0   0   0   0   0   0   0   0   0   0   3 87 86 79 
   3   0   0   0   0   0   0   0   0   0   0   0   0   0   0   0   4   0   9   0   5   0   0   0   0   0   0   0   0   0   3   1 66 
   1   0   0   0   0   0   5   0   0   4   0   0   0   0   0   5   0   7   0   0   0   0   6   0   5   0   0   0   4   0   0   2 80 78 
   1   5   0   0   0   0   9   0   0   0   0   7   0   0   0   0   7   0   0   0   0   0   0   0   0   0   0   0   8   0   0   2 79 78 
   7   0   0   0   3   0   0   0   0   5   0   0   5   0   0   0   0   0   0   0   0   0   0   0   0   0   0   0   0   0   0   2 80 78 
   2   0   0   0  10   0   0   0   6   0   0   0   0   0   0   0   0   0   0   0   0   7   0   0   0   0   0   0   0   6   6   2 83 78 
   8   0   0   0   0   0   0   0   6   0   0   0   0   0   6   0   0   0   0   0   0   0   0   0   0   0   0   0   0   0   0   2 84 81 
   8   0   0   0   0   0   0   0   0   9   0   0   0   0   0   0   0   0   0   0   0   0   0   0   4   0   0   0   0   0   0   2 85 83 
   5   0   0   0   7   8   0   0   0   0   0   0   0   0   0   5   0   0   0   0   0   0   0   0   0   0   0   0   0   0   0   1 81 
   5   0   0   0   0   0   4   0   0   0   0   0   0   0   0   0   0   0   0   0   7   0   0   0   0   0   0   0   0   0   0   1 79 
  10   0   0   0   0   0   0   0   0   0   0   0   0   0   0   0   0   0   0   5   0   0   0   0   0   0   7   8   0   9   0   1 83 
   8   0   0   0   0   0   0   0   0   0   0   0   0   0   0   0   0   0   0   0   0   0   0   0   0   8   0   0   7   0   0   1 81 
   7   0   0   0   0   0   0   4  10   0   0   0   0   0   0   0  10   0   7  10   0   0   0   0   0   4   4   0   0   8   0   1 79 
   7   0   0   0   0   0   0   0   0   8   0   0   0   0   0   0   7   0   0   0   0   0   0   0   0  10   0   0   0   5   0   1 87 
   8   0   0   0   0   0   0   6   0  10   0   0   0   0   0   0   9   0   0   0   0   0   0   9   0   0   0   0   0   0   0   1 102
   1   0   4   0   0   0   0   0   0   4   0   0   0   0   0   0   0   0   0   2   0   0   0   0   0   0   0   6   0   0   0   1 102
   8   0   8   8   0   0   0   0   0   0   0   0   0   0   0   0   0   0   0   0   0   0   0   0   0   0   0   9   0   0   0   1 102
   6   0   0   0   0   0   0   4   0   0   6   0   0   0  10   0   0   0   0   0   9   0   0   0   0   0   0   0   0   0   0   1 102
   6   0   9   0   8   0   0   7   0   0   0   0   0   0   0   0   0   0   0   3   0   5   0   0   6   0   0   0   0   0   0   1 102
  10   0  10   0   0   0   0   0   0   7   0   0   0   0   0   0   0   9   0   0   0   0   3   0  10   0   0   0   0   0   0   1 102
   8   0   0   0   0   0   0   0   0   0   0   0   0   0   0   0   0   8   0   0   8   0   0   0   0   0   0   7   0   0   0   1 102
   7   0   0   0   0   0   0   0  10   0   0   0   4   0   0   0   0   0   9   0   0   0   0   0   0   0   4   0   0   0   0   1 102
   2   0   0   0   0   8   0   0   0   0   9   0   0   0   5   0   0   0   0   0   0   0   0   0   0   0   0   6   9   0   5   1 102
   7   0   0   0   0   0   6   0   0   0   9   0   0   4   0   0   0   0   9   0   0   7   7   0   0   0   0   0   0   9   9   1 102
   9   0   0   0   0   0   0   9   0   0   0   0   0   4  10   0   0   0   0   0   0   0   0   0   0   0   5   0   0   0   0   1 102
   1   0   0   0   0   0   0   0   0   0   0   0   0   8   0   0   0   0   0   0   0   0   0   0   0   5   6   0   0   0   0   1 102
   4   0   0   0   0   0   0   0   4   0   0   0   0   0   0   0   0   0   0   0   0   0   0   7   6   0   0   8   0   0   0   1 102
   1   0   0   0   0   0   0   0   0   0   0   0   0   0   6   0   0   0   0   0   8   0   0   0   0   7   0   0   0   7   0   1 102
   2   0   0   0   0   0   0   0   0   0   0   0   0   0   7   7   0   0   0   0   8   0   8   5   0   0   0   0   0   0   0   1 102
  10   0   0   0   0   5   0   5   0   0   0   0   0   0   0   0   0   0   0   0   0   0   0  10   0   0   0   0   5   0   0   1 102
   1   0  10   0  10   0   0   0   0   0   0   0   0   0   0   0   0   0   0   0   0   0   0   0   0   0   0   0   0   0   0   1 102
   5   0   0   7   0   0   0   0   0   0   0   0   0   0   0   0   6   0   0   0   0   0   0   0   0   6   0   0   0   0   0   1 102
   1   0   0   0   0   0   0   0   0   0   0   0   0   0   1   0   0   5   0   0  10   0   0   0   0   0   0   0   0   0   0   1 102
   1   0   0   7   0   0   0   6   0   0   0   0   0   5   0   0   0   0   0   0   0   0   0   0   0   0   7   0   0   0   0   1 102
   3   0   6   0   0   0   0   6   0   0   0   0   0   0   0   0   2   0   0   0   0   0   0   0   0   0   0   0   0   6   0   1 102
   7   0   0   0   0   4   0   0   0   0   0   0   0   0   0   0   0   0   0   0   0   8   0   0   0   0   0   0   0   0   0   1 102
   5   6   0   0   0   8   0   0   0   0   0   0   0   0   0   0   0   0   0   0   0   0   0   0   6   0   0   0   0   2   0   1 102
   7   0   0   0   0   0   9   0   0   0   0   0   0   0   0   0   0   0   0   0   0   0   0   0   0   0   0   0   5   0   0   1 102
   0   0   0   0   0   0   0   0   0   0   0   0   0   0   0   0   0   0   0   0   0   0   0   0   0   0   0   0   0   0   0   0 
